results_rootrelaxation/bin012_060_032.srr.sol
solution status: optimal solution found
objective value:                     1.45454545454545
_var700_                            0.181818181818182 	(obj:0)
_var714_                            0.181818181818184 	(obj:0)
_var718_                            0.363636363636363 	(obj:0)
_var742_                            0.272727272727272 	(obj:0)
_var776_                            0.272727272727273 	(obj:0)
_var777_                            0.272727272727272 	(obj:0)
_var781_                            0.272727272727273 	(obj:0)
_var799_                           0.0909090909090919 	(obj:0)
_var800_                           0.0909090909090926 	(obj:0)
_var803_                             0.09090909090909 	(obj:0)
_var804_                            0.454545454545456 	(obj:0)
_var813_                            0.363636363636363 	(obj:0)
_var818_                           0.0909090909090914 	(obj:0)
_var821_                            0.454545454545454 	(obj:0)
_var822_                            0.181818181818185 	(obj:0)
_var823_                            0.454545454545454 	(obj:0)
_var829_                            0.181818181818183 	(obj:0)
_var841_                            0.181818181818183 	(obj:0)
_var845_                           0.0909090909090914 	(obj:0)
_var853_                            0.272727272727273 	(obj:0)
_var855_                           0.0909090909090903 	(obj:0)
_var860_                            0.545454545454546 	(obj:1)
_var864_                            0.454545454545453 	(obj:0)
_var874_                            0.363636363636364 	(obj:0)
_var878_                           0.0909090909090907 	(obj:0)
_var883_                            0.181818181818183 	(obj:0)
_var891_                            0.363636363636362 	(obj:0)
_var892_                            0.545454545454546 	(obj:0)
_var893_                            0.363636363636365 	(obj:2)
_var894_                            0.454545454545454 	(obj:0)
_var895_                            0.363636363636362 	(obj:0)
_var899_                            0.181818181818181 	(obj:0)
_var900_                            0.363636363636362 	(obj:0)
_var905_                           0.0909090909090904 	(obj:0)
_var921_                           0.0909090909090906 	(obj:0)
_var925_                           0.0909090909090894 	(obj:0)
_var928_                            0.181818181818181 	(obj:0)
_var934_                            0.454545454545452 	(obj:0)
_var936_                           0.0909090909090908 	(obj:0)
_var940_                           0.0909090909090913 	(obj:0)
_var942_                            0.181818181818184 	(obj:0)
_var944_                           0.0909090909090904 	(obj:2)
_var946_                           0.0909090909090912 	(obj:0)
_var947_                           0.0909090909090919 	(obj:0)
_var949_                            0.272727272727273 	(obj:0)
